
===== New CPLEX run =====
Instance: /home/yorig/tuner/mpils-tests/instances/miplib/easy/mas74.mps
Config: /scratch/yorig/mpils-results-grid-seconds-5-watchdog/easy/8proc/seed-2/5_mas74_seed-2_20260504_031955/expansion/config_param_CPXPARAM_Preprocessing_Symmetry_1_iter_2.prm
========================

Selected objective sense:  MINIMIZE
Selected objective  name:  obj
Selected RHS        name:  rhs
Selected bound      name:  bnd
Wall watchdog: enabled factor=1 grace=1 limit=6 seconds
Version identifier: 22.1.2.0 | 2024-11-26 | 0edbb82fd
CPXPARAM_Threads                                 8
CPXPARAM_Parallel                                1
CPXPARAM_MIP_Cuts_Cliques                        1
CPXPARAM_MIP_Cuts_FlowCovers                     -1
CPXPARAM_MIP_Cuts_Implied                        2
CPXPARAM_MIP_Cuts_Gomory                         -1
CPXPARAM_MIP_Cuts_PathCut                        1
CPXPARAM_MIP_Cuts_MIRCut                         2
CPXPARAM_MIP_Cuts_Disjunctive                    1
CPXPARAM_Emphasis_MIP                            3
CPXPARAM_Preprocessing_Symmetry                  1
CPXPARAM_TimeLimit                               5
CPXPARAM_MIP_Limits_CutsFactor                   1
Found incumbent of value 157344.610330 after 0.00 sec. (0.02 ticks)
Tried aggregator 1 time.
MIP Presolve eliminated 0 rows and 3 columns.
Reduced MIP has 13 rows, 148 columns, and 1682 nonzeros.
Reduced MIP has 145 binaries, 2 generals, 0 SOSs, and 0 indicators.
Presolve time = 0.00 sec. (0.84 ticks)
Probing time = 0.00 sec. (0.09 ticks)
Tried aggregator 1 time.
Reduced MIP has 13 rows, 148 columns, and 1682 nonzeros.
Reduced MIP has 145 binaries, 2 generals, 0 SOSs, and 0 indicators.
Presolve time = 0.00 sec. (0.58 ticks)
Probing time = 0.00 sec. (0.09 ticks)
MIP emphasis: best bound.
MIP search method: dynamic search.
Parallel mode: deterministic, using up to 8 threads.
Root relaxation solution time = 0.00 sec. (0.72 ticks)

        Nodes                                         Cuts/
   Node  Left     Objective  IInf  Best Integer    Best Bound    ItCnt     Gap

*     0+    0                       157344.6103        0.0000           100.00%
*     0+    0                        51840.4943        0.0000           100.00%
      0     0    10482.7953    12    51840.4943    10482.7953       43   79.78%
*     0+    0                        19197.4680    10482.7953            45.39%
*     0+    0                        15240.3317    10482.7953            31.22%
*     0+    0                        14372.8713    10482.7953            27.07%
*     0+    0                        13174.3215    10513.0180            20.20%
      0     2    10482.7953    12    13174.3215    10534.0211       43   20.04%
Elapsed time = 0.02 sec. (10.87 ticks, tree = 0.02 MB, solutions = 6)
*    10+    7                        12915.1000    10534.0211            18.44%
*    59+   42                        12759.1000    10534.0211            17.44%
*   101+   81                        11857.3713    10534.0211            11.16%

Performing restart 1

Repeating presolve.
Tried aggregator 1 time.
MIP Presolve eliminated 0 rows and 48 columns.
Reduced MIP has 13 rows, 100 columns, and 1067 nonzeros.
Reduced MIP has 98 binaries, 1 generals, 0 SOSs, and 0 indicators.
Presolve time = 0.00 sec. (0.39 ticks)
Tried aggregator 1 time.
Reduced MIP has 13 rows, 100 columns, and 1067 nonzeros.
Reduced MIP has 98 binaries, 1 generals, 0 SOSs, and 0 indicators.
Presolve time = 0.00 sec. (0.34 ticks)
Represolve time = 0.00 sec. (1.07 ticks)
  18062 14721    11404.7548    12    11857.3713    11018.2847   114091    7.08%
* 21128+16828                        11801.1857    11037.0270             6.48%
  38963 34197    11200.1493    12    11801.1857    11107.2151   249311    5.88%
  50725 44488    11215.1517    12    11801.1857    11107.2151   321806    5.88%
  62423 54596    11320.6610    10    11801.1857    11107.2151   394178    5.88%
  73754 63924    11365.5488    12    11801.1857    11107.2151   461775    5.88%
  85165 74163    11293.9381    12    11801.1857    11107.2151   536334    5.88%

Performing restart 2

Repeating presolve.
Tried aggregator 1 time.
MIP Presolve eliminated 0 rows and 3 columns.
Reduced MIP has 13 rows, 97 columns, and 1030 nonzeros.
Reduced MIP has 96 binaries, 0 generals, 0 SOSs, and 0 indicators.
Presolve time = 0.00 sec. (0.34 ticks)
Tried aggregator 1 time.
Reduced MIP has 13 rows, 97 columns, and 1030 nonzeros.
Reduced MIP has 96 binaries, 0 generals, 0 SOSs, and 0 indicators.
Presolve time = 0.00 sec. (0.33 ticks)
Represolve time = 0.01 sec. (2.81 ticks)
  98754  7849    11344.2832    10    11801.1857    11119.4761   622747    5.78%
 118486 25167    11197.5481    12    11801.1857    11119.4761   739977    5.78%
 139434 43753    11245.5481    11    11801.1857    11181.0609   868396    5.25%
 224262 116050    11358.4096    11    11801.1857    11314.4304  1390092    4.12%
Elapsed time = 3.30 sec. (3110.43 ticks, tree = 24.13 MB, solutions = 16)
 307354 180172    11397.7317    11    11801.1857    11380.4673  1884038    3.57%

Clique cuts applied:  0
Implied bound cuts applied:  0
Mixed integer rounding cuts applied:  0
Flow path cuts applied:  0
Disjunctive cuts applied:  0
Cone linearizations applied:  0

Root node processing (before b&c):
  Real time             =    0.02 sec. (10.83 ticks)
Parallel b&c, 8 threads:
  Real time             =    4.98 sec. (4536.17 ticks)
  Sync time (average)   =    0.83 sec.
  Wait time (average)   =    0.00 sec.
                          ------------
Total (root+branch&cut) =    5.00 sec. (4547.00 ticks)
Gap: 3.5%
Upper bound: 11801.2
Lower bound: 11388.2
Termination status: Normal
End of CPLEX run. Time: 5.00362 seconds
